\ENCODING=ISO-8859-1
\Problem name: Prob1

Minimize
 obj1: 13 v0 + 12 v1 + 8 v2 + 10 v3 + 10 v4 + 4 v5 + 4 v6 + 20 v7 + 5 v8
Subject To
 c0: v5 + v6 + v8 >= 1
 c1: v0 + v1 + v2 + v3 + v5 + v8 >= 1
 c2: v0 + v3 + v4 + v7 >= 1
 c3: v2 + v5 + v6 + v7 >= 1
Bounds
 0 <= v0 <= 1
 0 <= v1 <= 1
 0 <= v2 <= 1
 0 <= v3 <= 1
 0 <= v4 <= 1
 0 <= v5 <= 1
 0 <= v6 <= 1
 0 <= v7 <= 1
 0 <= v8 <= 1
End
